p tw 30 45
1 9
1 24
1 29
2 7
2 17
2 30
3 5
3 6
3 11
4 6
4 22
4 29
5 10
5 18
6 20
7 10
7 16
8 15
8 19
8 28
9 23
9 25
10 17
11 18
11 27
12 14
12 19
12 26
13 19
13 26
13 27
14 17
14 20
15 18
15 22
16 21
16 25
20 30
21 24
21 29
22 25
23 24
23 28
26 30
27 28
